n = 28;
k = 4;
roles = [
{g, f},
{d, f},
{f, g},
{g, d},
{f, g},
{d, m},
{g, m},
{d, f},
{m, g},
{f, d},
{d, m},
{f, g},
{f, d},
{g, m},
{g, m},
{g, d},
{d, m},
{d, f},
{d, f},
{g, f},
{d, m},
{m, d},
{g, f},
{g, m},
{m, g},
{d, f},
{m, d},
{m, f}
];
num_pairs = 3;
player1 = [17, 3, 5];
player2 = [21, 22, 11];
